objective value:                                 2824
delta[0,0]*                                         8 	(obj:333)
delta[1,1]*                                        10 	(obj:16)
mu[1,1,11]*                          4.43407986904589 	(obj:0)
mu[0,0,18]*                           1.3266338198695 	(obj:0)
mu[1,1,19]*                          5.38643295146693 	(obj:0)
mu[0,0,24]*                          2.23026934686521 	(obj:0)
mu[0,0,34]*                          2.13143213756288 	(obj:0)
mu[0,0,36]*                          2.30003678872567 	(obj:0)
mu[1,1,39]*                         0.179487179487179 	(obj:0)
